<number of tasks>
20


<number of equipment>
5


<cycle time>
1000


<investment costs>
1,27380
2,24485
3,19379
4,21588
5,10419


<task times>
1,-1,140,219,182,-1
2,-1,189,268,295,-1
3,94,-1,-1,-1,382
4,-1,139,-1,183,378
5,-1,128,-1,176,342
6,-1,237,-1,193,367
7,-1,208,230,195,-1
8,83,-1,-1,-1,303
9,-1,138,-1,179,344
10,-1,94,-1,159,104
11,-1,179,305,294,-1
12,-1,140,-1,188,390
13,61,-1,-1,-1,324
14,-1,219,227,254,-1
15,-1,125,-1,181,192
16,-1,218,-1,196,384
17,-1,258,-1,320,444
18,-1,138,-1,185,382
19,-1,226,236,251,-1
20,-1,189,228,201,-1


<precedence relations>
1,3
2,4
2,5
2,6
3,8
4,7
4,16
4,19
5,8
6,11
7,10
8,9
8,11
9,12
10,14
11,13
11,14
11,15
11,16
11,17
12,19
13,18
14,20
15,20
16,20
17,20


<task types>
1,2
2,2
3,1
4,3
5,3
6,3
7,2
8,1
9,3
10,3
11,2
12,3
13,1
14,2
15,3
16,3
17,3
18,3
19,2
20,2


<line depot>
1,0
2,2
3,0
4,2
5,3


<processing costs>
1,7200
2,14400
3,7200
4,14400
5,14400


<saving costs>
1,2738
2,2448
3,1937
4,2158
5,1041


<end>
